\ENCODING=ISO-8859-1
\Problem name: IloCplex

Minimize
 obj1: x1 + 36.799997 x2 + 1
Subject To
 c1:  x1 + 5 x2 <= 100009
 c2:  x1 + 9.6 x2 >= 10.96
 c3:  x1 + 14.6 x2 <= 14
 c4:  x1 + 12.6 x2 >= 11.26
 c5:  x1 + 17.6 x2 <= 17.6666666666667
 c6:  x1 + 15.172311 x2 >= 11.5172311
 c7:  x1 + 20.172311 x2 <= 19
 c8:  x1 + 16.627686 x2 >= 11.6627686
 c9:  x1 + 21.627686 x2 <= 19
 c10: x1 + 19.199997 x2 >= 11.9199997
 c11: x1 + 24.199997 x2 <= 19
 c12: x1 + 22.199997 x2 >= 12.2199997
 c13: x1 + 27.199997 x2 <= 19
 c14: x1 + 31.799997 x2 >= 13.1799997
 c15: x1 + 36.799997 x2 <= 19
Bounds
 10 <= x1 <= 100010
 0.1 <= x2 <= 0.333333333333333
End
